\ENCODING=ISO-8859-1
\Problem name: IloCplex

Minimize
 obj: - x1 - 0.921052631578948 x2 - 0.907894736842105 x3 - x4
      - 0.881578947368421 x5 - 0.894736842105264 x6 - 0.802631578947368 x7
      - 0.815789473684211 x8 - 0.802631578947368 x9 - 0.723684210526316 x10
      - 0.723684210526316 x11 - 0.723684210526316 x12 - 0.631578947368421 x13
      - 0.618421052631579 x14 - 0.618421052631579 x15 - 0.618421052631579 x16
      - 0.539473684210526 x17 - 0.539473684210526 x18 - 0.539473684210526 x19
      - 0.460526315789474 x20 - 0.473684210526316 x21 - 0.381578947368421 x22
      - 0.381578947368421 x23 - 0.394736842105263 x24 - 0.368421052631579 x25
      - 0.368421052631579 x26 - 0.355263157894737 x27 - 0.355263157894737 x28
      - 0.276315789473684 x29 - 0.276315789473684 x30 - 0.197368421052632 x31
      - 0.171052631578948 x32 - 0.171052631578948 x33 - 0.197368421052632 x34
      - 0.118421052631579 x35 - 0.0921052631578945 x36 - 0.105263157894737 x37
      - 0.0921052631578949 x38 - 0.0789473684210521 x39
      - 0.0263157894736845 x40 - 0.105263157894737 x41 - 0.0789473684210521 x42
      - 0.0921052631578946 x43 - 0.0263157894736842 x46
      - 0.0657894736842108 x47 - 0.0657894736842106 x48
      + 0.0131578947368421 x49 - 0.0131578947368418 x50 + 1
Subject To
 c1: 92 x1 + 89 x2 + 87 x3 + 84 x4 + 82 x5 + 82 x6 + 81 x7 + 75 x8 + 73 x9
     + 71 x10 + 67 x11 + 67 x12 + 63 x13 + 59 x14 + 57 x15 + 56 x16 + 52 x17
     + 49 x18 + 48 x19 + 47 x20 + 46 x21 + 41 x22 + 39 x23 + 38 x24 + 36 x25
     + 35 x26 + 34 x27 + 34 x28 + 30 x29 + 29 x30 + 26 x31 + 21 x32 + 20 x33
     + 19 x34 + 18 x35 + 15 x36 + 15 x37 + 13 x38 + 11 x39 + 10 x40 + 10 x41
     + 10 x42 + 9 x43 + 8 x44 + 8 x45 + 7 x46 + 6 x47 + 6 x48 + 6 x49 + 3 x50
     <= 100
 c2: x4 + x42 <= 1
 c3: x4 + x40 <= 1
 c4: x18 + x19 <= 1
Bounds
 0 <= x1 <= 1
 0 <= x2 <= 1
 0 <= x3 <= 1
 0 <= x4 <= 1
 0 <= x5 <= 1
 0 <= x6 <= 1
 0 <= x7 <= 1
 0 <= x8 <= 1
 0 <= x9 <= 1
 0 <= x10 <= 1
 0 <= x11 <= 1
 0 <= x12 <= 1
 0 <= x13 <= 1
 0 <= x14 <= 1
 0 <= x15 <= 1
 0 <= x16 <= 1
 0 <= x17 <= 1
 0 <= x18 <= 1
 0 <= x19 <= 1
 0 <= x20 <= 1
 0 <= x21 <= 1
 0 <= x22 <= 1
 0 <= x23 <= 1
 0 <= x24 <= 1
 0 <= x25 <= 1
 0 <= x26 <= 1
 0 <= x27 <= 1
 0 <= x28 <= 1
 0 <= x29 <= 1
 0 <= x30 <= 1
 0 <= x31 <= 1
 0 <= x32 <= 1
 0 <= x33 <= 1
 0 <= x34 <= 1
 0 <= x35 <= 1
 0 <= x36 <= 1
 0 <= x37 <= 1
 0 <= x38 <= 1
 0 <= x39 <= 1
      x40 = 1
 0 <= x41 <= 1
 0 <= x42 <= 1
 0 <= x43 <= 1
 0 <= x44 <= 1
 0 <= x45 <= 1
 0 <= x46 <= 1
      x47 = 1
 0 <= x48 <= 1
 0 <= x49 <= 1
 0 <= x50 <= 1
Binaries
 x1  x2  x3  x4  x5  x6  x7  x8  x9  x10  x11  x12  x13  x14  x15  x16  x17 
 x18  x19  x20  x21  x22  x23  x24  x25  x26  x27  x28  x29  x30  x31  x32 
 x33  x34  x35  x36  x37  x38  x39  x40  x41  x42  x43  x44  x45  x46  x47 
 x48  x49  x50 
End
